\ This file has been generated by DOcplex
\ ENCODING=ISO-8859-1
\Problem name: Orandom77742_18_6.lp

Minimize
 obj: 59.999999483072 x0 + 26.999999483072 x1 + 42.999998449217 x2
      + 38.999997932289 x3 + 62.999998449217 x4 + 34.999998966144 x5
      + 72.999999483072 x6 + 55.999999483072 x7 + 75.999998966144 x8
      + 65.999999483072 x9 + 53.999999483072 x10 + 90.999999483072 x11
      + 26.999998966144 x12 + 7.999999483072 x13 + 28.999999483072 x14
      - 28.000003101567 x15 + 46.999999483072 x16 + 59.999998966144 x17 + [
      5.000000516928 x0^2 + 10.000001033856 x0*x3 + 10.000001033856 x0*x4
      + 10.000001033856 x0*x5 + 10.000001033856 x0*x13 + 10.000001033856 x0*x15
      + 5.000000516928 x1^2 + 10.000001033856 x1*x2 + 10.000001033856 x1*x3
      + 10.000001033856 x1*x4 + 10.000001033856 x1*x5 + 10.000001033856 x1*x9
      + 10.000001033856 x1*x15 + 10.000001033856 x1*x16 + 10.000001033856 x1*x17
      + 15.000001550783 x2^2 + 30.000003101567 x2*x3 + 10.000001033856 x2*x4
      + 10.000001033856 x2*x5 + 20.000002067711 x2*x8 + 10.000001033856 x2*x9
      + 10.000001033856 x2*x11 + 30.000003101567 x2*x15 + 10.000001033856 x2*x16
      + 10.000001033856 x2*x17 + 20.000002067711 x3^2 + 20.000002067711 x3*x4
      + 20.000002067711 x3*x5 + 20.000002067711 x3*x8 + 10.000001033856 x3*x9
      + 10.000001033856 x3*x11 + 10.000001033856 x3*x13 + 40.000004135423 x3*x15
      + 10.000001033856 x3*x16 + 10.000001033856 x3*x17 + 15.000001550783 x4^2
      + 20.000002067711 x4*x5 + 10.000001033856 x4*x6 + 10.000001033856 x4*x9
      + 10.000001033856 x4*x10 + 10.000001033856 x4*x12 + 10.000001033856 x4*x13
      + 10.000001033856 x4*x14 + 30.000003101567 x4*x15 + 10.000001033856 x4*x16
      + 10.000001033856 x4*x17 + 10.000001033856 x5^2 + 10.000001033856 x5*x9
      + 10.000001033856 x5*x13 + 20.000002067711 x5*x15 + 10.000001033856 x5*x16
      + 10.000001033856 x5*x17 + 5.000000516928 x6^2 + 10.000001033856 x6*x10
      + 10.000001033856 x6*x12 + 10.000001033856 x6*x14 + 10.000001033856 x6*x15
      + 5.000000516928 x7^2 + 10.000001033856 x7*x12 + 10.000001033856 x7*x15
      + 10.000001033856 x7*x17 + 10.000001033856 x8^2 + 10.000001033856 x8*x11
      + 20.000002067711 x8*x15 + 5.000000516928 x9^2 + 10.000001033856 x9*x15
      + 10.000001033856 x9*x16 + 10.000001033856 x9*x17 + 5.000000516928 x10^2
      + 10.000001033856 x10*x12 + 10.000001033856 x10*x14
      + 10.000001033856 x10*x15 + 5.000000516928 x11^2 + 10.000001033856 x11*x15
      + 10.000001033856 x12^2 + 10.000001033856 x12*x14
      + 20.000002067711 x12*x15 + 10.000001033856 x12*x17 + 5.000000516928 x13^2
      + 10.000001033856 x13*x15 + 5.000000516928 x14^2 + 10.000001033856 x14*x15
      + 30.000003101567 x15^2 + 10.000001033856 x15*x16
      + 20.000002067711 x15*x17 + 5.000000516928 x16^2 + 10.000001033856 x16*x17
      + 10.000001033856 x17^2 ]/2 + 15.000001550783
Subject To

Bounds
 0 <= x0 <= 1
 0 <= x1 <= 1
 0 <= x2 <= 1
 0 <= x3 <= 1
 0 <= x4 <= 1
 0 <= x5 <= 1
 0 <= x6 <= 1
 0 <= x7 <= 1
 0 <= x8 <= 1
 0 <= x9 <= 1
 0 <= x10 <= 1
 0 <= x11 <= 1
 0 <= x12 <= 1
 0 <= x13 <= 1
 0 <= x14 <= 1
 0 <= x15 <= 1
 0 <= x16 <= 1
 0 <= x17 <= 1

Binaries
 x0 x1 x2 x3 x4 x5 x6 x7 x8 x9 x10 x11 x12 x13 x14 x15 x16 x17
End
